N = 5;
H = 6;
T = 2;

avail = array3d(1..N, 1..H, 1..T, [8, 6, 5, 5, 0, 9, 4, 8, 5, 0, 0, 5, 6, 8, 0, 10, 0, 5, 10, 4, 2, 3, 5, 10, 0, 1, 0, 3, 2, 7, 6, 5, 9, 7, 9, 7, 5, 5, 3, 0, 5, 6, 7, 5, 7, 4, 10, 10, 9, 3, 5, 7, 8, 2, 3, 10, 2, 10, 8, 8]);

r = array2d(1..H, 1..T, [1, 1, 2, 1, 0, 0, 2, 1, 1, 0, 2, 1]);
